n= 20; m= 6;


36	16	38	16	19	24	22	29	1	26	20	35	29	25	26	24	32	27	4	38
4	24	25	2	46	4	9	4	17	8	24	18	45	27	16	1	13	13	6	45
32	46	1	47	22	36	26	41	42	38	5	5	31	5	9	6	40	41	22	23
1	2	21	43	6	29	5	16	6	8	30	2	46	29	5	7	12	24	24	8
1	45	10	2	2	32	12	10	36	25	37	39	10	22	13	8	23	34	14	7
32	46	1	47	22	36	26	41	42	38	5	5	31	5	9	6	40	41	22	23
 
